$molecule
0 1
O          1.742896282984         -1.513934498653         -0.041794824802
C          1.264790036155         -0.501704328730          0.414312138032
H          1.166323437588         -0.377707872460          1.515080532508
C          0.795990639192          0.673816935848         -0.410460603494
H          0.633503213261          0.345469068692         -1.442167655037
H          1.629480427213          1.390974279815         -0.428485119740
C         -1.858658421540         -0.677555819268         -0.316761206275
H         -2.819323122696         -1.180693905631         -0.256414104094
H         -1.057437021842         -1.225095929047         -0.806620699246
C         -1.696462605957          0.544536441487          0.191558856486
H         -2.550094887733          1.028375273190          0.666846131380
C         -0.432933474242          1.364334453174          0.183469232816
H         -0.621052677343          2.297439010111         -0.363364704851
H         -0.211791803740          1.675275223050          1.215439112634
$end

$rem
method    wB97XD
basis   6-31+G*
! ys_debug      10
MAX_SCF_CYCLES =  500
GUI  2
SYM_IGNORE = TRUE
$end
