$molecule
0 1
O          0.393717065087         -1.315168872654          0.197992975399
C          1.577241732682         -0.656858914044          0.186993855685
H          2.340181265597         -1.280743283362          0.643053691183
C          1.854030123590          0.556502248079         -0.297017894018
H          1.113350089289          1.217807031842         -0.730069086061
H          2.874215790205          0.917487075612         -0.234260796207
C         -0.729784063709         -0.689818084613         -0.405644556138
H         -1.459857424816         -1.498388623257         -0.509478127613
H         -0.469589579747         -0.331849704537         -1.411640983859
C         -1.312318314373          0.414215721714          0.433610083695
H         -1.388121469861          0.200478881252          1.498941408310
C         -1.766265156671          1.564677256201         -0.058352315240
H         -1.691217312235          1.800983215595         -1.118617101798
H         -2.230427671226          2.311956163975          0.578400787028
$end

$rem
method    wB97XD
basis   6-31+G*
! ys_debug      10
MAX_SCF_CYCLES =  500
GUI  2
SYM_IGNORE = TRUE
$end
