$molecule
0 1
O          0.625329222204         -1.351058166941         -0.075636407789
C          1.310531512952         -0.368592319419          0.376970203718
H          1.656501177546         -0.432895712854          1.419781317890
C          1.438107323819          0.839519624228         -0.278595808069
H          1.283290892286          0.884206383116         -1.350974841607
H          2.033107289195          1.632142375600          0.166714380060
C         -1.244349683432         -0.915672172723         -0.332857494247
H         -1.622808383944         -1.859414131005          0.042887294117
H         -1.137337697549         -0.850439020835         -1.410612054948
C         -1.386308849181          0.252957408421          0.414637556126
H         -1.591912327995          0.156259928624          1.478510506514
C         -0.806773038308          1.419823655241         -0.048442869481
H         -0.756951359888          1.611430524272         -1.114837917074
H         -0.740035077705          2.297778624276          0.587508134790
$end

$rem
method    wB97XD
basis   6-31+G*
! ys_debug      10
MAX_SCF_CYCLES =  500
GUI  2
SYM_IGNORE = TRUE
$end
