$molecule
0 3
S    1.23993000 -0.42692000  0.74670000
O    0.45021000 -1.34872000 -0.17421000
O    0.20435000  0.57866000  1.19614000
O    2.08962000 -1.04173000  1.74155000
C    2.35100000  0.52699000 -0.41323000
F    1.60565000  1.12608000 -1.34609000
F    3.20571000 -0.31010000 -0.99568000
F    3.01984000  1.44622000  0.27952000
Cu  -1.26037000 -0.31462000  0.02407000
N   -3.94453000  1.06231000  0.08755000
O   -2.93355000 -0.28389000 -0.51034000
N   -4.96484000  1.49733000  0.03648000
$end

$rem
BASIS gen
ECP_FIT TRUE
GUI  =  2
MAX_SCF_CYCLES  =  500
METHOD  =  wb97xd
UNRESTRICTED  =  1
ECP  =  gen
SYM_IGNORE = TRUE
$end

$basis
C
6-31G+(d)
****
O
6-31G+(d)
****
F
6-31G+(d)
****
N
6-31G+(d)
****
S
6-31+G(d)
****
Cu
LANL2DZ
****
$end
$ecp
Cu
LANL2DZ
****
$end
