$molecule
0 1
16     1.239930000000  -0.426920000000   0.746700000000
8      0.450210000000  -1.348720000000  -0.174210000000
8      0.204350000000   0.578660000000   1.196140000000
8      2.089620000000  -1.041730000000   1.741550000000
6      2.351000000000   0.526990000000  -0.413230000000
9      1.605650000000   1.126080000000  -1.346090000000
9      3.205710000000  -0.310100000000  -0.995680000000
9      3.019840000000   1.446220000000   0.279520000000
29    -1.260370000000  -0.314620000000   0.024070000000
7     -3.944530000000   1.062310000000   0.087550000000
8     -2.933550000000  -0.283890000000  -0.510340000000
7     -4.964840000000   1.497330000000   0.036480000000
$end

$rem
   BASIS  =  gen
   ECP_FIT  =  TRUE
   GUI  =  2
   MAX_SCF_CYCLES  =  500
   METHOD  =  wb97xd
   SCF_ALGORITHM  =  GDM
   UNRESTRICTED  =  1
   ECP  =  gen
   SYM_IGNORE = TRUE
$end

$basis
    C
    6-31G+(d)
    ****
    O
    6-31G+(d)
    ****
    F
    6-31G+(d)
    ****
    N
    6-31G+(d)
    ****
    S
    6-31+G(d)
    ****
    Cu
    LANL2DZ
    ****
$end

$ecp
Cu
    LANL2DZ
    ****
$end

