$molecule
0 3
16     1.181964836516  -0.540387169139   0.563927593445
8      0.267503406857  -1.291044373796  -0.389138203117
8      0.198906522165   0.106908458390   1.525297805465
8      2.317369831479  -1.241471724351   1.117728769885
6      1.859876309246   0.876849515599  -0.449210582223
9      0.849877306853   1.566719876804  -0.986097555008
9      2.630516186908   0.388814323678  -1.417382813009
9      2.574012605930   1.674309448302   0.340317423688
29    -1.419932333489  -0.688577524717   0.586026947484
7     -2.238773706564   1.503562397823  -1.062534300714
8     -3.163363651780  -0.917367240018   0.672206949046
7     -2.772406087289   2.265083018697  -1.658158478020
$end

$rem
   BASIS  =  gen
   ECP_FIT  =  TRUE
   GUI  =  2
   MAX_SCF_CYCLES  =  500
   METHOD  =  wb97xd
   SCF_ALGORITHM  =  GDM
   UNRESTRICTED  =  1
   ECP  =  gen
   SYM_IGNORE = TRUE
$end

$basis
    C
    6-31G+(d)
    ****
    O
    6-31G+(d)
    ****
    F
    6-31G+(d)
    ****
    N
    6-31G+(d)
    ****
    S
    6-31+G(d)
    ****
    Cu
    LANL2DZ
    ****
$end

$ecp
Cu
    LANL2DZ
    ****
$end

