$molecule
0 3
S    1.28295447 -0.44337529  0.75373149
O    0.62218567 -1.46909161 -0.15352611
O    0.12582068  0.48338530  1.09280030
O    2.11995302 -0.91723477  1.83071546
C    2.36090959  0.56644674 -0.39253078
F    1.61958036  1.00457864 -1.41589940
F    3.35087389 -0.19847646 -0.84940177
F    2.85916727  1.60452331  0.27738425
Cu  -1.17818261 -0.52632307 -0.08205857
N   -4.28984295  1.93300394  0.46635564
O   -2.82393676 -0.60777529 -0.69166506
N   -5.36005172  1.85448370  0.19965353
$end

$rem
BASIS gen
ECP_FIT TRUE
GUI  =  2
MAX_SCF_CYCLES  =  500
METHOD  =  wb97xd
UNRESTRICTED  =  1
ECP  =  gen
SYM_IGNORE = TRUE
$end

$basis
C
6-31G+(d)
****
O
6-31G+(d)
****
F
6-31G+(d)
****
N
6-31G+(d)
****
S
6-31+G(d)
****
Cu
LANL2DZ
****
$end
$ecp
Cu
LANL2DZ
****
$end
