$molecule
0 1
S    1.10827900 -0.26314979  0.78931865
O    0.49380731 -1.30833014 -0.15037626
O    0.06153510  0.74692648  1.09459812
O    1.89532335 -0.81368353  1.87839211
C    2.31113006  0.60404332 -0.34182258
F    1.65889890  1.10092993 -1.40215038
F    3.24325543 -0.25043605 -0.76475361
F    2.89681526  1.60727720  0.31626660
Cu  -1.33796628 -0.71573896 -0.28493994
N   -3.57186806  0.97330798  0.18105730
O   -3.22151978 -0.04741835 -0.37439238
N   -3.94465360  1.91218149  0.67797668
$end

$rem
BASIS gen
ECP_FIT TRUE
GUI  =  2
MAX_SCF_CYCLES  =  500
METHOD  =  wb97xd
UNRESTRICTED  =  1
ECP  =  gen
SYM_IGNORE = TRUE
$end

$basis
C
6-31G+(d)
****
O
6-31G+(d)
****
F
6-31G+(d)
****
N
6-31G+(d)
****
S
6-31+G(d)
****
Cu
LANL2DZ
****
$end
$ecp
Cu
LANL2DZ
****
$end
