$molecule
0 1
S      1.122710549767  -0.258214594119   0.792820464074
O      0.495309545206  -1.305808767724  -0.135193884691
O      0.081862383675   0.756753855647   1.102413182199
O      1.918693241180  -0.805414434804   1.877037226373
C      2.317178595764   0.598736292994  -0.354941505834
F      1.655585457018   1.093700056145  -1.410446022120
F      3.240863766988  -0.261795127424  -0.784200357835
F      2.914562116030   1.602354858666   0.291931005060
Cu    -1.333695425374  -0.700795132653  -0.260904051062
N     -3.614524435199   0.953700249027   0.156295407729
O     -3.226249809184  -0.065675937181  -0.375166823267
N     -4.023340451095   1.889666567488   0.630037275774
$end

$rem
   BASIS  =  gen
   ECP_FIT  =  TRUE
   GUI  =  2
   MAX_SCF_CYCLES  =  500
   METHOD  =  wb97xd
   SCF_ALGORITHM  =  GDM
   UNRESTRICTED  =  1
   ECP  =  gen
   SYM_IGNORE = TRUE
$end

$basis
    C
    6-31G+(d)
    ****
    O
    6-31G+(d)
    ****
    F
    6-31G+(d)
    ****
    N
    6-31G+(d)
    ****
    S
    6-31+G(d)
    ****
    Cu
    LANL2DZ
    ****
$end

$ecp
Cu
    LANL2DZ
    ****
$end

