$molecule
-1 1
C          0.584269968812         -0.003755373974         -0.005147543069
H          0.243565174881         -0.833031375011         -0.618721073658
H          0.234046889368         -0.120793852950          1.016527250666
Cl         2.411502683458          0.001319878584          0.001861008014
H          0.237056908418          0.939120587898         -0.418111311730
Cl        -2.632795812979          0.001408672671          0.002456956203
$end

$rem
method    wB97XD
basis   6-31+G*
! ys_debug      10
MAX_SCF_CYCLES =  500
GUI  2
SYM_IGNORE = TRUE
$end
