$molecule
-1 1
C         -0.584451411866         -0.003684205492         -0.005062123138
H         -0.243913481916         -0.832979118675         -0.618703153157
H         -0.234043274528         -0.120751051443          1.016546397552
Cl         2.632619808025          0.001214353370          0.002048466266
H         -0.237253054870          0.939171738679         -0.418084604403
Cl        -2.411681693771          0.001512446043          0.002281323470
$end

$rem
method    wB97XD
basis   6-31+G*
! ys_debug      10
MAX_SCF_CYCLES =  500
GUI  2
SYM_IGNORE = TRUE
$end
