$molecule
-1 1
C         -0.000087851807         -0.000284843195         -0.001751944425
H         -0.000175066052         -0.864990877824         -0.640902980201
H         -0.000002008928         -0.121455526247          1.066446425650
Cl         2.338164371138          0.000710649776          0.001481345562
H         -0.000086293800          0.984960233612         -0.432153643779
Cl        -2.338343150551          0.000892363884          0.001867797194
$end

$rem
method    wB97XD
basis   6-31+G*
! ys_debug      10
MAX_SCF_CYCLES =  500
GUI  2
SYM_IGNORE = TRUE
$end
