$molecule
0 1
C         -0.775036852026         -0.018430855817          1.042020400963
C          0.775036412993         -0.018430896093          1.042020642462
C          1.153467375360          0.164314953700         -0.448624450519
N          0.000000120470         -0.271468062493         -1.238213295766
C         -1.153467341970          0.164315039393         -0.448624802143
H         -1.164014583736         -0.968532842892          1.424288503756
H         -1.192102841136          0.776646080558          1.668351535213
H          1.164013976080         -0.968532895930          1.424288885023
H          1.192102245922          0.776646030048          1.668351893524
H          1.331046762736          1.225000614335         -0.666495225188
H          2.051373736956         -0.387000445587         -0.742285233055
H          0.000000091695         -1.287410562442         -1.296376997750
H         -1.331046577554          1.225000716121         -0.666495621745
H         -2.051373656199         -0.387000285289         -0.742285868366
$end

$rem
method    wB97XD
basis   6-31+G*
! ys_debug      10
MAX_SCF_CYCLES =  500
GUI  2
SYM_IGNORE = TRUE
$end
