$molecule
0 1
C         -0.667149726005         -0.081767790598          1.881132128130
C          0.667143877467         -0.081771238326          1.881132694446
C          1.216573700681          0.218957929663         -1.162885419988
N          0.000003371875         -0.268451890667         -1.397999381350
C         -1.216570543498          0.218951320988         -1.162890097390
H         -1.239451972738         -0.998139613562          1.768254968120
H         -1.238965867380          0.833809231475          2.008412897397
H          1.239441342418         -0.998146080378          1.768255965549
H          1.238964699341          0.833802703938          2.008414123942
H          1.313095096878          1.221933042325         -0.773916726438
H          2.071179730747         -0.374044997854         -1.450399770810
H          0.000006625454         -1.206053714826         -1.787599595457
H         -1.313098965522          1.221926009150         -0.773921998030
H         -2.071172203158         -0.374056944115         -1.450406531397
$end

$rem
method    wB97XD
basis   6-31+G*
! ys_debug      10
MAX_SCF_CYCLES =  500
GUI  2
SYM_IGNORE = TRUE
$end
