$molecule
0 1
C         -0.680350665099         -0.065410505316          1.534687252966
C          0.680350098303         -0.065410608106          1.534687433156
C          1.198105706202          0.203765346307         -0.894579040405
N          0.000000133896         -0.279818651352         -1.252589880258
C         -1.198105560710          0.203765384713         -0.894579447650
H         -1.245033302792         -0.992592397422          1.549224655140
H         -1.243566706850          0.836986667805          1.753969294448
H          1.245032578040         -0.992592590261          1.549224999372
H          1.243566211168          0.836986469554          1.753969669254
H          1.277282538693          1.269212887904         -0.726063318697
H          2.071123881533         -0.345239181263         -1.222760620161
H          0.000000156411         -1.247951643024         -1.551759866170
H         -1.277282428774          1.269212937583         -0.726063779416
H         -2.071123640022         -0.345239117122         -1.222761351580
$end

$rem
method    wB97XD
basis   6-31+G*
! ys_debug      10
MAX_SCF_CYCLES =  500
GUI  2
SYM_IGNORE = TRUE
$end
