$molecule
0 1
    H       -2.585318   -0.262009    1.083283
    C       -1.679187    0.323947    0.907884
    C       -0.401115   -0.531682    0.986102
    C       -0.581496   -1.419429   -0.231042
    C       -1.219968   -0.697222   -1.158734
    C       -1.470023    0.681795   -0.576655
    H       -1.666345    1.194748    1.574658
    H       -0.179847   -1.031023    1.930523
    H       -0.148024   -2.406383   -0.345178
    H       -1.419465   -0.980316   -2.186797
    H       -2.244193    1.279905   -1.060624
    C        0.661573    0.561925    0.595213
    H        0.868775    1.190670    1.467346
    C       -0.080106    1.385913   -0.509544
    H       -0.183002    2.430311   -0.200026
    H        0.442876    1.363918   -1.467700
    C        1.935432   -0.003869    0.153146
    N        2.942187   -0.456504   -0.199007
$end

$rem
method    wB97XD
basis   6-31+G*
! ys_debug      10
MAX_SCF_CYCLES =  500
GUI  2
SYM_IGNORE = TRUE
$end
