$molecule
0 1
    H       -2.895273   -0.108329    1.374410
    C       -1.924776    0.115101    0.907275
    C       -0.953764   -1.016557    1.087679
    C       -0.612038   -1.507287   -0.120253
    C       -1.294725   -0.737444   -1.162546
    C       -2.049028    0.220537   -0.586251
    H       -1.570178    1.048003    1.366575
    H       -0.610485   -1.376134    2.050966
    H        0.078144   -2.322262   -0.308650
    H       -1.191613   -0.918418   -2.227087
    H       -2.678220    0.943154   -1.093466
    C        1.271837    1.250965    0.443932
    H        1.163716    1.425481    1.510329
    C        0.596229    1.963271   -0.461244
    H       -0.085046    2.749187   -0.151787
    H        0.701638    1.781687   -1.525166
    C        2.171565    0.200058    0.067953
    N        2.904271   -0.650517   -0.224202
$end

$rem
method    wB97XD
basis   6-31+G*
! ys_debug      10
MAX_SCF_CYCLES =  500
GUI  2
SYM_IGNORE = TRUE
$end
