$molecule
0 1
    H          -2.64145  -0.19045   1.12506
    C          -1.65482   0.24417   0.89768
    C          -0.62282  -0.8331    1.04625
    C          -0.52137  -1.49666  -0.1659
    C          -1.13761  -0.71954  -1.16119
    C          -1.58806   0.47774  -0.59365
    H          -1.52303   1.12418   1.52971
    H          -0.26578  -1.20934   1.99815
    H           0.04805  -2.40173  -0.34035
    H          -1.13513  -0.94504  -2.22194
    H          -2.24922   1.16939  -1.10714
    C           0.96611   0.92019   0.48691
    H           0.97176   1.25254   1.51939
    C           0.19252   1.56967  -0.47284
    H          -0.31363   2.48741  -0.18795
    H           0.48773   1.51745  -1.51494
    C           2.05237   0.08071   0.09827
    N           2.92896  -0.60907  -0.23046
$end

$rem
method    wB97XD
basis   6-31+G*
! ys_debug      10
MAX_SCF_CYCLES =  500
GUI  2
SYM_IGNORE = TRUE
$end
